(set-info :status unsat)
(declare-const symbol_577 (_ BitVec 32))
(declare-const symbol_216 (_ BitVec 32))
(declare-const symbol_393 (_ BitVec 32))
(declare-const symbol_510 (_ BitVec 32))
(declare-const symbol_472 (_ BitVec 32))
(declare-const symbol_222 (_ BitVec 32))
(declare-const symbol_25 (_ BitVec 32))
(declare-const symbol_562 (_ BitVec 32))
(declare-const symbol_125 (_ BitVec 32))
(declare-const symbol_338 (_ BitVec 32))
(declare-const symbol_198 (_ BitVec 32))
(declare-const symbol_388 (_ BitVec 32))
(declare-const symbol_296 (_ BitVec 32))
(declare-const symbol_193 (_ BitVec 32))
(declare-const symbol_152 (_ BitVec 32))
(declare-const symbol_247 (_ BitVec 32))
(declare-const symbol_224 (_ BitVec 32))
(declare-const symbol_54 (_ BitVec 32))
(declare-const symbol_272 (_ BitVec 32))
(declare-const symbol_167 (_ BitVec 32))
(declare-const symbol_131 (_ BitVec 32))
(declare-const symbol_171 (_ BitVec 32))
(declare-const symbol_26 (_ BitVec 32))
(declare-const symbol_241 (_ BitVec 32))
(declare-const symbol_593 (_ BitVec 32))
(declare-const symbol_554 (_ BitVec 32))
(declare-const symbol_29 (_ BitVec 32))
(declare-const symbol_23 (_ BitVec 32))
(declare-const symbol_15 (_ BitVec 32))
(declare-const symbol_104 (_ BitVec 32))
(declare-const symbol_44 (_ BitVec 32))
(declare-const symbol_485 (_ BitVec 32))
(declare-const symbol_251 (_ BitVec 32))
(declare-const symbol_560 (_ BitVec 32))
(declare-const symbol_550 (_ BitVec 32))
(declare-const symbol_377 (_ BitVec 32))
(declare-const symbol_255 (_ BitVec 32))
(declare-const symbol_231 (_ BitVec 32))
(declare-const symbol_407 (_ BitVec 32))
(declare-const symbol_11 (_ BitVec 32))
(declare-const symbol_265 (_ BitVec 32))
(declare-const symbol_95 (_ BitVec 32))
(declare-const symbol_311 (_ BitVec 32))
(declare-const symbol_373 (_ BitVec 32))
(declare-const symbol_185 (_ BitVec 32))
(declare-const symbol_441 (_ BitVec 32))
(declare-const symbol_418 (_ BitVec 32))
(declare-const symbol_481 (_ BitVec 32))
(declare-const symbol_399 (_ BitVec 32))
(declare-const symbol_380 (_ BitVec 32))
(declare-const symbol_470 (_ BitVec 32))
(declare-const symbol_493 (_ BitVec 32))
(declare-const symbol_274 (_ BitVec 32))
(declare-const symbol_474 (_ BitVec 32))
(declare-const symbol_200 (_ BitVec 32))
(declare-const symbol_66 (_ BitVec 32))
(declare-const symbol_278 (_ BitVec 32))
(declare-const symbol_235 (_ BitVec 32))
(declare-const symbol_429 (_ BitVec 32))
(declare-const symbol_455 (_ BitVec 32))
(declare-const symbol_299 (_ BitVec 32))
(declare-const symbol_585 (_ BitVec 32))
(declare-const symbol_350 (_ BitVec 32))
(declare-const symbol_154 (_ BitVec 32))
(declare-const symbol_86 (_ BitVec 32))
(declare-const symbol_340 (_ BitVec 32))
(declare-const symbol_194 (_ BitVec 32))
(declare-const symbol_477 (_ BitVec 32))
(declare-const symbol_459 (_ BitVec 32))
(declare-const symbol_504 (_ BitVec 32))
(declare-const symbol_210 (_ BitVec 32))
(declare-const symbol_369 (_ BitVec 32))
(declare-const symbol_395 (_ BitVec 32))
(declare-const symbol_76 (_ BitVec 32))
(declare-const symbol_70 (_ BitVec 32))
(declare-const symbol_5 (_ BitVec 32))
(declare-const symbol_309 (_ BitVec 32))
(declare-const symbol_506 (_ BitVec 32))
(declare-const symbol_187 (_ BitVec 32))
(declare-const symbol_90 (_ BitVec 32))
(declare-const symbol_321 (_ BitVec 32))
(declare-const symbol_597 (_ BitVec 32))
(declare-const symbol_361 (_ BitVec 32))
(declare-const symbol_175 (_ BitVec 32))
(declare-const symbol_579 (_ BitVec 32))
(declare-const symbol_410 (_ BitVec 32))
(declare-const symbol_461 (_ BitVec 32))
(declare-const symbol_431 (_ BitVec 32))
(declare-const symbol_356 (_ BitVec 32))
(declare-const symbol_319 (_ BitVec 32))
(declare-const symbol_468 (_ BitVec 32))
(declare-const symbol_141 (_ BitVec 32))
(declare-const symbol_538 (_ BitVec 32))
(declare-const symbol_499 (_ BitVec 32))
(declare-const symbol_204 (_ BitVec 32))
(declare-const symbol_116 (_ BitVec 32))
(declare-const symbol_85 (_ BitVec 32))
(declare-const symbol_514 (_ BitVec 32))
(declare-const symbol_220 (_ BitVec 32))
(declare-const symbol_524 (_ BitVec 32))
(declare-const symbol_237 (_ BitVec 32))
(declare-const symbol_135 (_ BitVec 32))
(declare-const symbol_530 (_ BitVec 32))
(declare-const symbol_451 (_ BitVec 32))
(declare-const symbol_139 (_ BitVec 32))
(declare-const symbol_9 (_ BitVec 32))
(declare-const symbol_599 (_ BitVec 32))
(declare-const symbol_583 (_ BitVec 32))
(declare-const symbol_544 (_ BitVec 32))
(declare-const symbol_315 (_ BitVec 32))
(declare-const symbol_161 (_ BitVec 32))
(declare-const symbol_565 (_ BitVec 32))
(declare-const symbol_371 (_ BitVec 32))
(declare-const symbol_183 (_ BitVec 32))
(declare-const symbol_108 (_ BitVec 32))
(declare-const symbol_427 (_ BitVec 32))
(declare-const symbol_61 (_ BitVec 32))
(declare-const symbol_3 (_ BitVec 32))
(declare-const symbol_123 (_ BitVec 32))
(declare-const symbol_145 (_ BitVec 32))
(declare-const symbol_423 (_ BitVec 32))
(declare-const symbol_280 (_ BitVec 32))
(declare-const symbol_196 (_ BitVec 32))
(declare-const symbol_100 (_ BitVec 32))
(declare-const symbol_127 (_ BitVec 32))
(declare-const symbol_94 (_ BitVec 32))
(declare-const symbol_72 (_ BitVec 32))
(declare-const symbol_546 (_ BitVec 32))
(declare-const symbol_191 (_ BitVec 32))
(declare-const symbol_173 (_ BitVec 32))
(declare-const symbol_97 (_ BitVec 32))
(declare-const symbol_591 (_ BitVec 32))
(declare-const symbol_258 (_ BitVec 32))
(declare-const symbol_359 (_ BitVec 32))
(declare-const symbol_333 (_ BitVec 32))
(declare-const symbol_147 (_ BitVec 32))
(declare-const symbol_266 (_ BitVec 32))
(declare-const symbol_518 (_ BitVec 32))
(declare-const symbol_111 (_ BitVec 32))
(declare-const symbol_88 (_ BitVec 32))
(declare-const symbol_307 (_ BitVec 32))
(declare-const symbol_575 (_ BitVec 32))
(declare-const symbol_286 (_ BitVec 32))
(declare-const symbol_548 (_ BitVec 32))
(declare-const symbol_276 (_ BitVec 32))
(declare-const symbol_391 (_ BitVec 32))
(declare-const symbol_268 (_ BitVec 32))
(declare-const symbol_114 (_ BitVec 32))
(declare-const symbol_245 (_ BitVec 32))
(declare-const symbol_81 (_ BitVec 32))
(declare-const symbol_386 (_ BitVec 32))
(declare-const symbol_48 (_ BitVec 32))
(declare-const symbol_569 (_ BitVec 32))
(declare-const symbol_317 (_ BitVec 32))
(declare-const symbol_536 (_ BitVec 32))
(declare-const symbol_483 (_ BitVec 32))
(declare-const symbol_476 (_ BitVec 32))
(declare-const symbol_466 (_ BitVec 32))
(declare-const symbol_419 (_ BitVec 32))
(declare-const symbol_226 (_ BitVec 32))
(declare-const symbol_78 (_ BitVec 32))
(declare-const symbol_520 (_ BitVec 32))
(declare-const symbol_189 (_ BitVec 32))
(declare-const symbol_401 (_ BitVec 32))
(declare-const symbol_17 (_ BitVec 32))
(declare-const symbol_447 (_ BitVec 32))
(declare-const symbol_425 (_ BitVec 32))
(declare-const symbol_106 (_ BitVec 32))
(declare-const symbol_130 (_ BitVec 32))
(declare-const symbol_137 (_ BitVec 32))
(declare-const symbol_491 (_ BitVec 32))
(declare-const symbol_382 (_ BitVec 32))
(declare-const symbol_243 (_ BitVec 32))
(declare-const symbol_102 (_ BitVec 32))
(declare-const symbol_433 (_ BitVec 32))
(declare-const symbol_421 (_ BitVec 32))
(declare-const symbol_205 (_ BitVec 32))
(declare-const symbol_327 (_ BitVec 32))
(declare-const symbol_301 (_ BitVec 32))
(declare-const symbol_284 (_ BitVec 32))
(declare-const symbol_352 (_ BitVec 32))
(declare-const symbol_567 (_ BitVec 32))
(declare-const symbol_443 (_ BitVec 32))
(declare-const symbol_323 (_ BitVec 32))
(declare-const symbol_335 (_ BitVec 32))
(declare-const symbol_489 (_ BitVec 32))
(declare-const symbol_348 (_ BitVec 32))
(declare-const symbol_528 (_ BitVec 32))
(declare-const symbol_229 (_ BitVec 32))
(declare-const symbol_405 (_ BitVec 32))
(declare-const symbol_329 (_ BitVec 32))
(declare-const symbol_181 (_ BitVec 32))
(declare-const symbol_516 (_ BitVec 32))
(declare-const symbol_540 (_ BitVec 32))
(declare-const symbol_375 (_ BitVec 32))
(declare-const symbol_365 (_ BitVec 32))
(declare-const symbol_288 (_ BitVec 32))
(declare-const symbol_14 (_ BitVec 32))
(declare-const symbol_46 (_ BitVec 32))
(declare-const symbol_74 (_ BitVec 32))
(declare-const symbol_439 (_ BitVec 32))
(declare-const symbol_556 (_ BitVec 32))
(declare-const symbol_79 (_ BitVec 32))
(declare-const symbol_403 (_ BitVec 32))
(declare-const symbol_233 (_ BitVec 32))
(declare-const symbol_228 (_ BitVec 32))
(declare-const symbol_50 (_ BitVec 32))
(declare-const symbol_589 (_ BitVec 32))
(declare-const symbol_542 (_ BitVec 32))
(declare-const symbol_449 (_ BitVec 32))
(declare-const symbol_358 (_ BitVec 32))
(declare-const symbol_344 (_ BitVec 32))
(declare-const symbol_558 (_ BitVec 32))
(declare-const symbol_526 (_ BitVec 32))
(declare-const symbol_367 (_ BitVec 32))
(declare-const symbol_21 (_ BitVec 32))
(declare-const symbol_19 (_ BitVec 32))
(declare-const symbol_218 (_ BitVec 32))
(declare-const symbol_416 (_ BitVec 32))
(declare-const symbol_342 (_ BitVec 32))
(declare-const symbol_151 (_ BitVec 32))
(declare-const symbol_98 (_ BitVec 32))
(declare-const symbol_31 (_ BitVec 32))
(declare-const symbol_239 (_ BitVec 32))
(declare-const symbol_7 (_ BitVec 32))
(declare-const symbol_587 (_ BitVec 32))
(declare-const symbol_212 (_ BitVec 32))
(declare-const symbol_39 (_ BitVec 32))
(declare-const symbol_595 (_ BitVec 32))
(declare-const symbol_159 (_ BitVec 32))
(declare-const symbol_290 (_ BitVec 32))
(declare-const symbol_119 (_ BitVec 32))
(declare-const symbol_337 (_ BitVec 32))
(declare-const symbol_331 (_ BitVec 32))
(declare-const symbol_571 (_ BitVec 32))
(declare-const symbol_379 (_ BitVec 32))
(declare-const symbol_68 (_ BitVec 32))
(declare-const symbol_305 (_ BitVec 32))
(declare-const symbol_512 (_ BitVec 32))
(declare-const symbol_346 (_ BitVec 32))
(declare-const symbol_163 (_ BitVec 32))
(declare-const symbol_260 (_ BitVec 32))
(declare-const symbol_294 (_ BitVec 32))
(declare-const symbol_303 (_ BitVec 32))
(declare-const symbol_149 (_ BitVec 32))
(declare-const symbol_522 (_ BitVec 32))
(declare-const symbol_414 (_ BitVec 32))
(declare-const symbol_33 (_ BitVec 32))
(declare-const symbol_457 (_ BitVec 32))
(declare-const symbol_354 (_ BitVec 32))
(declare-const symbol_384 (_ BitVec 32))
(declare-const symbol_253 (_ BitVec 32))
(declare-const symbol_573 (_ BitVec 32))
(declare-const symbol_157 (_ BitVec 32))
(declare-const symbol_435 (_ BitVec 32))
(declare-const symbol_143 (_ BitVec 32))
(declare-const symbol_532 (_ BitVec 32))
(declare-const symbol_249 (_ BitVec 32))
(declare-const symbol_0 (_ BitVec 32))
(declare-const symbol_487 (_ BitVec 32))
(declare-const symbol_92 (_ BitVec 32))
(declare-const symbol_179 (_ BitVec 32))
(declare-const symbol_36 (_ BitVec 32))
(declare-const symbol_64 (_ BitVec 32))
(declare-const symbol_270 (_ BitVec 32))
(declare-const symbol_133 (_ BitVec 32))
(declare-const symbol_581 (_ BitVec 32))
(declare-const symbol_479 (_ BitVec 32))
(declare-const symbol_464 (_ BitVec 32))
(declare-const symbol_325 (_ BitVec 32))
(declare-const symbol_262 (_ BitVec 32))
(declare-const symbol_453 (_ BitVec 32))
(declare-const symbol_282 (_ BitVec 32))
(declare-const symbol_207 (_ BitVec 32))
(declare-const symbol_202 (_ BitVec 32))
(declare-const symbol_41 (_ BitVec 32))
(declare-const symbol_83 (_ BitVec 32))
(declare-const symbol_508 (_ BitVec 32))
(declare-const symbol_177 (_ BitVec 32))
(declare-const symbol_497 (_ BitVec 32))
(declare-const symbol_363 (_ BitVec 32))
(declare-const symbol_445 (_ BitVec 32))
(declare-const symbol_313 (_ BitVec 32))
(declare-const symbol_169 (_ BitVec 32))
(declare-const symbol_534 (_ BitVec 32))
(declare-const symbol_397 (_ BitVec 32))
(declare-const symbol_495 (_ BitVec 32))
(declare-const symbol_412 (_ BitVec 32))
(declare-const symbol_502 (_ BitVec 32))
(declare-const symbol_51 (_ BitVec 32))
(declare-const symbol_292 (_ BitVec 32))
(declare-const symbol_256 (_ BitVec 32))
(declare-const symbol_389 (_ BitVec 32))
(declare-const symbol_121 (_ BitVec 32))
(declare-const symbol_500 (_ BitVec 32))
(declare-const symbol_59 (_ BitVec 32))
(declare-const symbol_552 (_ BitVec 32))
(declare-const symbol_165 (_ BitVec 32))
(declare-const symbol_56 (_ BitVec 32))
(declare-const symbol_437 (_ BitVec 32))
(declare-const symbol_214 (_ BitVec 32))
(assert (= symbol_599 (_ bv14 32)))
(assert (not (not (= symbol_599 (_ bv2 32)))))
(assert (not (not (= symbol_597 (_ bv2 32)))))
(assert (not (not (= symbol_595 (_ bv2 32)))))
(assert (not (not (= symbol_593 (_ bv2 32)))))
(assert (not (not (= symbol_591 (_ bv2 32)))))
(assert (not (not (= symbol_589 (_ bv2 32)))))
(assert (not (not (= symbol_587 (_ bv2 32)))))
(assert (not (not (= symbol_585 (_ bv2 32)))))
(assert (not (not (= symbol_583 (_ bv2 32)))))
(assert (not (not (= symbol_581 (_ bv2 32)))))
(assert (not (not (= symbol_579 (_ bv2 32)))))
(assert (not (not (= symbol_577 (_ bv2 32)))))
(assert (not (not (= symbol_575 (_ bv2 32)))))
(assert (not (not (= symbol_573 (_ bv2 32)))))
(assert (not (not (= symbol_571 (_ bv2 32)))))
(assert (not (not (= symbol_569 (_ bv2 32)))))
(assert (not (not (= symbol_567 (_ bv2 32)))))
(assert (not (not (= symbol_565 (_ bv2 32)))))
(assert (not (not (= symbol_562 (_ bv2 32)))))
(assert (not (not (= symbol_560 (_ bv2 32)))))
(assert (not (not (= symbol_558 (_ bv2 32)))))
(assert (not (not (= symbol_556 (_ bv2 32)))))
(assert (not (not (= symbol_554 (_ bv2 32)))))
(assert (not (not (= symbol_552 (_ bv2 32)))))
(assert (not (not (= symbol_550 (_ bv2 32)))))
(assert (not (not (= symbol_548 (_ bv2 32)))))
(assert (not (not (= symbol_546 (_ bv2 32)))))
(assert (not (not (= symbol_544 (_ bv2 32)))))
(assert (not (not (= symbol_542 (_ bv2 32)))))
(assert (not (not (= symbol_540 (_ bv2 32)))))
(assert (not (not (= symbol_538 (_ bv2 32)))))
(assert (not (not (= symbol_536 (_ bv2 32)))))
(assert (not (not (= symbol_534 (_ bv2 32)))))
(assert (not (not (= symbol_532 (_ bv2 32)))))
(assert (not (not (= symbol_530 (_ bv2 32)))))
(assert (not (not (= symbol_528 (_ bv2 32)))))
(assert (not (not (= symbol_526 (_ bv2 32)))))
(assert (not (not (= symbol_524 (_ bv2 32)))))
(assert (not (not (= symbol_522 (_ bv2 32)))))
(assert (not (not (= symbol_520 (_ bv2 32)))))
(assert (not (not (= symbol_518 (_ bv2 32)))))
(assert (not (not (= symbol_516 (_ bv2 32)))))
(assert (not (not (= symbol_514 (_ bv2 32)))))
(assert (not (not (= symbol_512 (_ bv2 32)))))
(assert (not (not (= symbol_510 (_ bv2 32)))))
(assert (not (not (= symbol_508 (_ bv2 32)))))
(assert (not (not (= symbol_506 (_ bv2 32)))))
(assert (not (not (= symbol_504 (_ bv2 32)))))
(assert (not (not (= symbol_502 (_ bv2 32)))))
(assert (not (not (= symbol_500 (_ bv2 32)))))
(assert (not (not (= symbol_499 (_ bv2 32)))))
(assert (not (not (= symbol_497 (_ bv2 32)))))
(assert (not (not (= symbol_495 (_ bv2 32)))))
(assert (not (not (= symbol_493 (_ bv2 32)))))
(assert (not (not (= symbol_491 (_ bv2 32)))))
(assert (not (not (= symbol_489 (_ bv2 32)))))
(assert (not (not (= symbol_487 (_ bv2 32)))))
(assert (not (not (= symbol_485 (_ bv2 32)))))
(assert (not (not (= symbol_483 (_ bv2 32)))))
(assert (not (not (= symbol_481 (_ bv2 32)))))
(assert (not (not (= symbol_479 (_ bv2 32)))))
(assert (not (not (= symbol_477 (_ bv2 32)))))
(assert (not (not (= symbol_476 (_ bv2 32)))))
(assert (not (not (= symbol_474 (_ bv2 32)))))
(assert (not (not (= symbol_472 (_ bv2 32)))))
(assert (not (not (= symbol_470 (_ bv2 32)))))
(assert (not (not (= symbol_468 (_ bv2 32)))))
(assert (not (not (= symbol_466 (_ bv2 32)))))
(assert (not (not (= symbol_464 (_ bv2 32)))))
(assert (not (not (= symbol_461 (_ bv2 32)))))
(assert (not (not (= symbol_459 (_ bv2 32)))))
(assert (not (not (= symbol_457 (_ bv2 32)))))
(assert (not (not (= symbol_455 (_ bv2 32)))))
(assert (not (not (= symbol_453 (_ bv2 32)))))
(assert (not (not (= symbol_451 (_ bv2 32)))))
(assert (not (not (= symbol_449 (_ bv2 32)))))
(assert (not (not (= symbol_447 (_ bv2 32)))))
(assert (not (not (= symbol_445 (_ bv2 32)))))
(assert (not (not (= symbol_443 (_ bv2 32)))))
(assert (not (not (= symbol_441 (_ bv2 32)))))
(assert (not (not (= symbol_439 (_ bv2 32)))))
(assert (not (not (= symbol_437 (_ bv2 32)))))
(assert (not (not (= symbol_435 (_ bv2 32)))))
(assert (not (not (= symbol_433 (_ bv2 32)))))
(assert (not (not (= symbol_431 (_ bv2 32)))))
(assert (not (not (= symbol_429 (_ bv2 32)))))
(assert (not (not (= symbol_427 (_ bv2 32)))))
(assert (not (not (= symbol_425 (_ bv2 32)))))
(assert (not (not (= symbol_423 (_ bv2 32)))))
(assert (not (not (= symbol_421 (_ bv2 32)))))
(assert (not (not (= symbol_419 (_ bv2 32)))))
(assert (not (not (= symbol_418 (_ bv2 32)))))
(assert (not (not (= symbol_416 (_ bv2 32)))))
(assert (not (not (= symbol_414 (_ bv2 32)))))
(assert (not (not (= symbol_412 (_ bv2 32)))))
(assert (not (not (= symbol_410 (_ bv2 32)))))
(assert (not (not (= symbol_407 (_ bv2 32)))))
(assert (not (not (= symbol_405 (_ bv2 32)))))
(assert (not (not (= symbol_403 (_ bv2 32)))))
(assert (not (not (= symbol_401 (_ bv2 32)))))
(assert (not (not (= symbol_399 (_ bv2 32)))))
(assert (not (not (= symbol_397 (_ bv2 32)))))
(assert (not (not (= symbol_395 (_ bv2 32)))))
(assert (not (not (= symbol_393 (_ bv2 32)))))
(assert (not (not (= symbol_391 (_ bv2 32)))))
(assert (not (not (= symbol_389 (_ bv2 32)))))
(assert (not (not (= symbol_388 (_ bv2 32)))))
(assert (not (not (= symbol_386 (_ bv2 32)))))
(assert (not (not (= symbol_384 (_ bv2 32)))))
(assert (not (not (= symbol_382 (_ bv2 32)))))
(assert (not (not (= symbol_380 (_ bv2 32)))))
(assert (not (not (= symbol_379 (_ bv2 32)))))
(assert (not (not (= symbol_377 (_ bv2 32)))))
(assert (not (not (= symbol_375 (_ bv2 32)))))
(assert (not (not (= symbol_373 (_ bv2 32)))))
(assert (not (not (= symbol_371 (_ bv2 32)))))
(assert (not (not (= symbol_369 (_ bv2 32)))))
(assert (not (not (= symbol_367 (_ bv2 32)))))
(assert (not (not (= symbol_365 (_ bv2 32)))))
(assert (not (not (= symbol_363 (_ bv2 32)))))
(assert (not (not (= symbol_361 (_ bv2 32)))))
(assert (not (not (= symbol_359 (_ bv2 32)))))
(assert (not (not (= symbol_358 (_ bv2 32)))))
(assert (not (not (= symbol_356 (_ bv2 32)))))
(assert (not (not (= symbol_354 (_ bv2 32)))))
(assert (not (not (= symbol_352 (_ bv2 32)))))
(assert (not (not (= symbol_350 (_ bv2 32)))))
(assert (not (not (= symbol_348 (_ bv2 32)))))
(assert (not (not (= symbol_346 (_ bv2 32)))))
(assert (not (not (= symbol_344 (_ bv2 32)))))
(assert (not (not (= symbol_342 (_ bv2 32)))))
(assert (not (not (= symbol_340 (_ bv2 32)))))
(assert (not (not (= symbol_338 (_ bv2 32)))))
(assert (not (not (= symbol_337 (_ bv2 32)))))
(assert (not (not (= symbol_335 (_ bv2 32)))))
(assert (not (not (= symbol_333 (_ bv2 32)))))
(assert (not (not (= symbol_331 (_ bv2 32)))))
(assert (not (not (= symbol_329 (_ bv2 32)))))
(assert (not (not (= symbol_327 (_ bv2 32)))))
(assert (not (not (= symbol_325 (_ bv2 32)))))
(assert (not (not (= symbol_323 (_ bv2 32)))))
(assert (not (not (= symbol_321 (_ bv2 32)))))
(assert (not (not (= symbol_319 (_ bv2 32)))))
(assert (not (not (= symbol_317 (_ bv2 32)))))
(assert (not (not (= symbol_315 (_ bv2 32)))))
(assert (not (not (= symbol_313 (_ bv2 32)))))
(assert (not (not (= symbol_311 (_ bv2 32)))))
(assert (not (not (= symbol_309 (_ bv2 32)))))
(assert (not (not (= symbol_307 (_ bv2 32)))))
(assert (not (not (= symbol_305 (_ bv2 32)))))
(assert (not (not (= symbol_303 (_ bv2 32)))))
(assert (not (not (= symbol_301 (_ bv2 32)))))
(assert (not (not (= symbol_299 (_ bv2 32)))))
(assert (not (not (= symbol_296 (_ bv2 32)))))
(assert (not (not (= symbol_294 (_ bv2 32)))))
(assert (not (not (= symbol_292 (_ bv2 32)))))
(assert (not (not (= symbol_290 (_ bv2 32)))))
(assert (not (not (= symbol_288 (_ bv2 32)))))
(assert (not (not (= symbol_286 (_ bv2 32)))))
(assert (not (not (= symbol_284 (_ bv2 32)))))
(assert (not (not (= symbol_282 (_ bv2 32)))))
(assert (not (not (= symbol_280 (_ bv2 32)))))
(assert (not (not (= symbol_278 (_ bv2 32)))))
(assert (not (not (= symbol_276 (_ bv2 32)))))
(assert (not (not (= symbol_274 (_ bv2 32)))))
(assert (not (not (= symbol_272 (_ bv2 32)))))
(assert (not (not (= symbol_270 (_ bv2 32)))))
(assert (not (not (= symbol_268 (_ bv2 32)))))
(assert (not (not (= symbol_266 (_ bv2 32)))))
(assert (not (not (= symbol_265 (_ bv2 32)))))
(assert (not (not (= symbol_262 (_ bv2 32)))))
(assert (not (not (= symbol_260 (_ bv2 32)))))
(assert (not (not (= symbol_258 (_ bv2 32)))))
(assert (not (not (= symbol_256 (_ bv2 32)))))
(assert (not (not (= symbol_255 (_ bv2 32)))))
(assert (not (not (= symbol_253 (_ bv2 32)))))
(assert (not (not (= symbol_251 (_ bv2 32)))))
(assert (not (not (= symbol_249 (_ bv2 32)))))
(assert (not (not (= symbol_247 (_ bv2 32)))))
(assert (not (not (= symbol_245 (_ bv2 32)))))
(assert (not (not (= symbol_243 (_ bv2 32)))))
(assert (not (not (= symbol_241 (_ bv2 32)))))
(assert (not (not (= symbol_239 (_ bv2 32)))))
(assert (not (not (= symbol_237 (_ bv2 32)))))
(assert (not (not (= symbol_235 (_ bv2 32)))))
(assert (not (not (= symbol_233 (_ bv2 32)))))
(assert (not (not (= symbol_231 (_ bv2 32)))))
(assert (not (not (= symbol_229 (_ bv2 32)))))
(assert (not (not (= symbol_228 (_ bv2 32)))))
(assert (not (not (= symbol_226 (_ bv2 32)))))
(assert (not (not (= symbol_224 (_ bv2 32)))))
(assert (not (not (= symbol_222 (_ bv2 32)))))
(assert (not (not (= symbol_220 (_ bv2 32)))))
(assert (not (not (= symbol_218 (_ bv2 32)))))
(assert (not (not (= symbol_216 (_ bv2 32)))))
(assert (not (not (= symbol_214 (_ bv2 32)))))
(assert (not (not (= symbol_212 (_ bv2 32)))))
(assert (not (not (= symbol_210 (_ bv2 32)))))
(assert (not (not (= symbol_207 (_ bv2 32)))))
(assert (not (not (= symbol_205 (_ bv2 32)))))
(assert (not (not (= symbol_204 (_ bv2 32)))))
(assert (not (not (= symbol_202 (_ bv2 32)))))
(assert (not (not (= symbol_200 (_ bv2 32)))))
(assert (not (not (= symbol_198 (_ bv2 32)))))
(assert (not (not (= symbol_196 (_ bv2 32)))))
(assert (not (not (= symbol_194 (_ bv2 32)))))
(assert (not (not (= symbol_193 (_ bv2 32)))))
(assert (not (not (= symbol_191 (_ bv2 32)))))
(assert (not (not (= symbol_189 (_ bv2 32)))))
(assert (not (not (= symbol_187 (_ bv2 32)))))
(assert (not (not (= symbol_185 (_ bv2 32)))))
(assert (not (not (= symbol_183 (_ bv2 32)))))
(assert (not (not (= symbol_181 (_ bv2 32)))))
(assert (not (not (= symbol_179 (_ bv2 32)))))
(assert (not (not (= symbol_177 (_ bv2 32)))))
(assert (not (not (= symbol_175 (_ bv2 32)))))
(assert (not (not (= symbol_173 (_ bv2 32)))))
(assert (not (not (= symbol_171 (_ bv2 32)))))
(assert (not (not (= symbol_169 (_ bv2 32)))))
(assert (not (not (= symbol_167 (_ bv2 32)))))
(assert (not (not (= symbol_165 (_ bv2 32)))))
(assert (not (not (= symbol_163 (_ bv2 32)))))
(assert (not (not (= symbol_161 (_ bv2 32)))))
(assert (not (not (= symbol_159 (_ bv2 32)))))
(assert (not (not (= symbol_157 (_ bv2 32)))))
(assert (not (not (= symbol_154 (_ bv2 32)))))
(assert (not (not (= symbol_152 (_ bv2 32)))))
(assert (not (not (= symbol_151 (_ bv2 32)))))
(assert (not (not (= symbol_149 (_ bv2 32)))))
(assert (not (not (= symbol_147 (_ bv2 32)))))
(assert (not (not (= symbol_145 (_ bv2 32)))))
(assert (not (not (= symbol_143 (_ bv2 32)))))
(assert (not (not (= symbol_141 (_ bv2 32)))))
(assert (not (not (= symbol_139 (_ bv2 32)))))
(assert (not (not (= symbol_137 (_ bv2 32)))))
(assert (not (not (= symbol_135 (_ bv2 32)))))
(assert (not (not (= symbol_133 (_ bv2 32)))))
(assert (not (not (= symbol_131 (_ bv2 32)))))
(assert (not (not (= symbol_130 (_ bv2 32)))))
(assert (not (not (= symbol_127 (_ bv2 32)))))
(assert (not (not (= symbol_125 (_ bv2 32)))))
(assert (not (not (= symbol_123 (_ bv2 32)))))
(assert (not (not (= symbol_121 (_ bv2 32)))))
(assert (not (not (= symbol_119 (_ bv2 32)))))
(assert (not (not (= symbol_116 (_ bv2 32)))))
(assert (not (not (= symbol_114 (_ bv2 32)))))
(assert (not (not (= symbol_111 (_ bv2 32)))))
(assert (not (not (= symbol_108 (_ bv2 32)))))
(assert (not (not (= symbol_106 (_ bv2 32)))))
(assert (not (not (= symbol_104 (_ bv2 32)))))
(assert (not (not (= symbol_102 (_ bv2 32)))))
(assert (not (not (= symbol_100 (_ bv2 32)))))
(assert (not (not (= symbol_98 (_ bv2 32)))))
(assert (not (not (= symbol_97 (_ bv2 32)))))
(assert (not (not (= symbol_95 (_ bv2 32)))))
(assert (not (not (= symbol_94 (_ bv2 32)))))
(assert (not (not (= symbol_92 (_ bv2 32)))))
(assert (not (not (= symbol_90 (_ bv2 32)))))
(assert (not (not (= symbol_88 (_ bv2 32)))))
(assert (not (not (= symbol_86 (_ bv2 32)))))
(assert (not (not (= symbol_85 (_ bv2 32)))))
(assert (not (not (= symbol_83 (_ bv2 32)))))
(assert (not (not (= symbol_81 (_ bv2 32)))))
(assert (not (not (= symbol_79 (_ bv2 32)))))
(assert (not (not (= symbol_78 (_ bv2 32)))))
(assert (not (not (= symbol_76 (_ bv2 32)))))
(assert (not (not (= symbol_74 (_ bv2 32)))))
(assert (not (not (= symbol_72 (_ bv2 32)))))
(assert (not (not (= symbol_70 (_ bv2 32)))))
(assert (not (not (= symbol_68 (_ bv2 32)))))
(assert (not (not (= symbol_66 (_ bv2 32)))))
(assert (not (not (= symbol_64 (_ bv2 32)))))
(assert (not (not (= symbol_61 (_ bv2 32)))))
(assert (not (not (= symbol_59 (_ bv2 32)))))
(assert (not (not (= symbol_56 (_ bv2 32)))))
(assert (not (not (= symbol_54 (_ bv2 32)))))
(assert (not (not (= symbol_51 (_ bv2 32)))))
(assert (not (not (= symbol_50 (_ bv2 32)))))
(assert (not (not (= symbol_48 (_ bv2 32)))))
(assert (not (not (= symbol_46 (_ bv2 32)))))
(assert (not (not (= symbol_44 (_ bv2 32)))))
(assert (not (not (= symbol_41 (_ bv2 32)))))
(assert (not (not (= symbol_39 (_ bv2 32)))))
(assert (not (not (= symbol_36 (_ bv2 32)))))
(assert (not (not (= symbol_33 (_ bv2 32)))))
(assert (not (not (= symbol_31 (_ bv2 32)))))
(assert (not (not (= symbol_29 (_ bv2 32)))))
(assert (not (not (= symbol_26 (_ bv2 32)))))
(assert (not (not (= symbol_25 (_ bv2 32)))))
(assert (not (not (= symbol_23 (_ bv2 32)))))
(assert (not (not (= symbol_21 (_ bv2 32)))))
(assert (not (not (= symbol_19 (_ bv2 32)))))
(assert (not (not (= symbol_17 (_ bv2 32)))))
(assert (not (not (= symbol_15 (_ bv2 32)))))
(assert (not (not (= symbol_14 (_ bv2 32)))))
(assert (not (not (= symbol_11 (_ bv2 32)))))
(assert (not (not (= symbol_9 (_ bv2 32)))))
(assert (not (not (= symbol_7 (_ bv2 32)))))
(assert (not (not (= symbol_5 (_ bv2 32)))))
(assert (not (not (= symbol_3 (_ bv2 32)))))
(assert (not (not (= symbol_0 (_ bv12 32)))))
(assert (not (= symbol_0 (_ bv2 32))))
(check-sat)